SDVRP instances/custom_instances/p04_21_split0.vrp
NAME:p04_21_split
BEST_KNOWN: 0
COMMENT: 0
DIMENSION: 680
CAPACITY: 200
EDGE_WEIGHT_FORMAT: FUNCTION
EDGE_WEIGHT_TYPE: EXACT_2D
NODE_COORD_SECTION
1 0.00000 0.00000
2 25 -19
3 25 -19
4 25 -19
5 25 -19
6 -3 -28
7 -3 -28
8 -3 -28
9 24 33
10 24 33
11 24 33
12 24 33
13 24 33
14 24 33
15 30 -14
16 30 -14
17 30 -14
18 30 -14
19 30 -14
20 12 -8
21 12 -8
22 12 -8
23 12 -8
24 12 -8
25 12 -8
26 36 0
27 36 0
28 -26 -20
29 -26 -20
30 -26 -20
31 -26 -20
32 26 19
33 26 19
34 26 19
35 5 -9
36 5 -9
37 5 -9
38 2 -17
39 2 -17
40 2 -17
41 2 -17
42 2 -17
43 2 -17
44 2 -17
45 35 -17
46 35 -17
47 35 -17
48 32 32
49 32 32
50 32 32
51 32 32
52 32 32
53 32 32
54 32 32
55 -19 2
56 -19 2
57 -19 2
58 -19 2
59 -19 2
60 -21 -34
61 -21 -34
62 -21 -34
63 -21 -34
64 -21 -34
65 34 -2
66 34 -2
67 34 -2
68 34 -39
69 34 -39
70 34 -39
71 34 -39
72 34 -39
73 24 -17
74 24 -17
75 -5 1
76 -5 1
77 24 42
78 24 42
79 24 42
80 24 42
81 26 34
82 26 34
83 26 34
84 26 34
85 -34 -13
86 -34 -13
87 -34 -13
88 6 9
89 6 9
90 6 9
91 6 9
92 6 9
93 -12 50
94 -12 50
95 -12 50
96 -12 50
97 11 10
98 11 10
99 11 10
100 11 10
101 11 10
102 45 -33
103 45 -33
104 45 -33
105 45 -33
106 -5 2
107 -5 2
108 -5 2
109 -5 2
110 -8 22
111 -8 22
112 -8 22
113 -8 22
114 -49 16
115 -49 16
116 -49 16
117 -49 16
118 -49 16
119 -49 16
120 45 23
121 45 23
122 45 23
123 45 23
124 45 23
125 45 23
126 45 23
127 -23 -45
128 -23 -45
129 -23 -45
130 -23 -45
131 -23 -45
132 -23 -45
133 35 1
134 35 1
135 35 1
136 35 1
137 44 -21
138 44 -21
139 44 -21
140 44 -21
141 40 -6
142 40 -6
143 40 -6
144 40 -6
145 40 -6
146 40 -6
147 44 -32
148 44 -32
149 44 -32
150 44 -32
151 44 -32
152 17 -10
153 17 -10
154 17 -10
155 17 -10
156 17 -10
157 30 19
158 30 19
159 30 19
160 30 19
161 9 47
162 9 47
163 9 47
164 9 47
165 19 15
166 19 15
167 19 15
168 19 15
169 19 15
170 -20 27
171 -20 27
172 -20 27
173 -20 27
174 -20 27
175 -20 27
176 -18 -50
177 -18 -50
178 -18 -50
179 -18 -50
180 39 -3
181 39 -3
182 39 -3
183 39 -3
184 16 -47
185 16 -47
186 33 -2
187 33 -2
188 33 -2
189 33 -2
190 33 -2
191 33 -2
192 33 -2
193 33 -2
194 18 -24
195 18 -24
196 0 48
197 0 48
198 0 48
199 0 48
200 0 48
201 20 24
202 20 24
203 20 24
204 -40 -41
205 -40 -41
206 -40 -41
207 -40 -41
208 -40 -41
209 -17 20
210 -17 20
211 -17 20
212 -17 20
213 13 6
214 13 6
215 13 6
216 -17 11
217 -17 11
218 -17 11
219 -17 11
220 -17 11
221 22 9
222 22 9
223 22 9
224 22 9
225 22 9
226 22 9
227 -38 1
228 -38 1
229 -38 1
230 -38 1
231 -38 1
232 -38 1
233 25 46
234 25 46
235 -43 -45
236 -43 -45
237 -43 -45
238 -43 -45
239 -43 -45
240 -43 -45
241 -41 5
242 -41 5
243 -41 5
244 -41 5
245 -41 5
246 -29 17
247 -29 17
248 -29 17
249 -15 27
250 -15 27
251 21 23
252 21 23
253 21 23
254 21 23
255 21 23
256 21 23
257 -10 -4
258 -10 -4
259 -10 -4
260 -10 -4
261 -10 -4
262 -10 -4
263 -45 22
264 -45 22
265 -45 22
266 -45 22
267 -45 22
268 12 -37
269 12 -37
270 12 -37
271 -34 2
272 -34 2
273 -34 2
274 -29 -46
275 -29 -46
276 -29 -46
277 -29 -46
278 -29 -46
279 -29 -46
280 32 46
281 32 46
282 32 46
283 32 46
284 36 -23
285 36 -23
286 36 -23
287 36 -23
288 36 -23
289 44 41
290 44 41
291 44 41
292 44 41
293 44 41
294 44 41
295 -11 29
296 -11 29
297 -11 29
298 -11 29
299 -11 29
300 -11 29
301 -4 50
302 -4 50
303 -4 50
304 -4 50
305 -42 28
306 -42 28
307 -42 28
308 -42 28
309 -42 28
310 1 -26
311 1 -26
312 22 25
313 22 25
314 5 -17
315 5 -17
316 5 -17
317 5 -17
318 5 -17
319 -6 43
320 -6 43
321 -6 43
322 -6 43
323 -6 43
324 16 30
325 16 30
326 16 30
327 -15 24
328 -15 24
329 -15 24
330 -15 24
331 -3 -15
332 -3 -15
333 -6 -47
334 -6 -47
335 -6 -47
336 -6 -47
337 46 8
338 46 8
339 46 8
340 46 8
341 46 8
342 12 13
343 12 13
344 12 13
345 12 13
346 32 36
347 32 36
348 32 36
349 32 36
350 32 36
351 32 36
352 13 27
353 13 27
354 13 27
355 13 27
356 13 27
357 31 -40
358 31 -40
359 31 -40
360 31 -40
361 -31 17
362 -31 17
363 -31 17
364 -31 17
365 -31 17
366 20 -13
367 20 -13
368 20 -13
369 20 -13
370 20 -13
371 20 -13
372 20 -13
373 -7 -24
374 -7 -24
375 -7 -24
376 -7 -24
377 -6 -9
378 -6 -9
379 -6 -9
380 -6 -9
381 -29 49
382 -29 49
383 -29 49
384 -29 49
385 -29 49
386 -29 49
387 -29 49
388 -29 49
389 50 -5
390 50 -5
391 50 -5
392 8 1
393 8 1
394 8 1
395 8 1
396 6 -7
397 6 -7
398 6 -7
399 6 -7
400 6 -7
401 6 -7
402 6 -7
403 -10 -3
404 -10 -3
405 -10 -3
406 31 -12
407 31 -12
408 31 -12
409 31 -12
410 31 -12
411 -23 -37
412 -23 -37
413 -23 -37
414 -23 -37
415 -23 -37
416 -23 -37
417 25 49
418 25 49
419 -19 -12
420 -19 -12
421 -19 -12
422 -19 -12
423 -19 -12
424 -19 -12
425 -19 -12
426 -19 -12
427 3 -17
428 3 -17
429 3 -17
430 -46 19
431 -46 19
432 -46 19
433 -46 19
434 -27 1
435 -27 1
436 -27 1
437 -27 1
438 -27 1
439 -27 1
440 32 18
441 32 18
442 32 18
443 32 18
444 32 18
445 34 -45
446 34 -45
447 34 -45
448 34 -45
449 -22 -14
450 -22 -14
451 -22 -14
452 -22 -14
453 -22 -14
454 -22 -14
455 -36 -32
456 -36 -32
457 -46 42
458 -46 42
459 -46 42
460 -6 21
461 -6 21
462 -6 21
463 -6 21
464 -6 21
465 -6 21
466 -6 21
467 14 12
468 14 12
469 14 12
470 50 -15
471 50 -15
472 50 -15
473 50 -15
474 50 -15
475 -1 43
476 -1 43
477 -1 43
478 -1 43
479 -1 43
480 -1 43
481 -1 43
482 23 32
483 23 32
484 23 32
485 23 32
486 -32 -25
487 -32 -25
488 -32 -25
489 -32 -25
490 -32 -25
491 -32 -25
492 -32 -25
493 -32 -25
494 10 47
495 10 47
496 10 47
497 10 47
498 10 47
499 20 -42
500 20 -42
501 20 -42
502 -26 -28
503 -26 -28
504 -26 -28
505 -26 -28
506 -42 -31
507 -42 -31
508 -42 -31
509 -42 -31
510 -42 -31
511 -40 -10
512 -40 -10
513 -40 -10
514 -40 -10
515 -40 -10
516 -40 -10
517 -40 -10
518 -18 28
519 -18 28
520 -18 28
521 -18 28
522 -18 28
523 34 -10
524 34 -10
525 34 -10
526 34 -10
527 49 30
528 49 30
529 49 30
530 49 30
531 49 30
532 43 16
533 43 16
534 43 16
535 0 20
536 0 20
537 0 20
538 0 20
539 20 -18
540 20 -18
541 20 -18
542 20 -18
543 20 -18
544 -23 -32
545 -23 -32
546 -23 -32
547 11 0
548 11 0
549 11 0
550 -6 -35
551 -6 -35
552 -6 -35
553 -6 -35
554 44 -48
555 44 -48
556 44 -48
557 44 -48
558 44 -48
559 26 44
560 26 44
561 26 44
562 26 44
563 26 44
564 26 44
565 -15 -32
566 -15 -32
567 -15 -32
568 -15 -32
569 7 30
570 7 30
571 7 30
572 7 30
573 7 30
574 7 30
575 5 -9
576 5 -9
577 5 -9
578 5 -9
579 5 -9
580 5 -9
581 39 40
582 39 40
583 39 40
584 39 40
585 -37 2
586 -37 2
587 -37 2
588 -37 2
589 -37 2
590 -37 2
591 -37 2
592 42 47
593 42 47
594 42 47
595 42 47
596 42 47
597 42 47
598 45 24
599 45 24
600 45 24
601 45 24
602 7 44
603 7 44
604 7 44
605 7 44
606 7 44
607 7 44
608 7 44
609 -22 28
610 -22 28
611 -22 28
612 45 10
613 45 10
614 45 10
615 45 10
616 45 10
617 45 10
618 -26 20
619 -26 20
620 -26 20
621 -26 20
622 -26 20
623 -26 20
624 29 2
625 29 2
626 29 2
627 -13 41
628 -44 21
629 -44 21
630 -44 21
631 -44 21
632 -44 21
633 -44 21
634 -44 21
635 21 -34
636 21 -34
637 21 -34
638 40 14
639 40 14
640 40 14
641 40 14
642 40 14
643 18 29
644 18 29
645 18 29
646 18 29
647 7 -21
648 7 -21
649 7 -21
650 7 21
651 7 21
652 7 21
653 7 21
654 42 8
655 42 8
656 42 8
657 42 8
658 42 8
659 42 8
660 -8 35
661 -8 35
662 -8 35
663 -8 35
664 -6 40
665 -6 40
666 -6 40
667 -2 -43
668 -2 -43
669 -2 -43
670 -46 -10
671 -46 -10
672 -46 -10
673 -46 -10
674 -46 -10
675 -34 4
676 -34 4
677 -34 4
678 -34 4
679 -34 4
680 -34 4
DEMAND_SECTION
1 0
2 40
3 20
4 10
5 1
6 40
7 40
8 2
9 40
10 2
11 2
12 2
13 2
14 1
15 40
16 10
17 2
18 2
19 1
20 20
21 10
22 2
23 2
24 2
25 1
26 40
27 10
28 40
29 40
30 10
31 2
32 40
33 40
34 1
35 20
36 10
37 2
38 40
39 40
40 10
41 2
42 2
43 2
44 2
45 40
46 20
47 1
48 40
49 40
50 10
51 2
52 2
53 2
54 2
55 20
56 2
57 2
58 2
59 1
60 40
61 2
62 2
63 2
64 2
65 40
66 2
67 2
68 40
69 20
70 10
71 2
72 1
73 40
74 40
75 20
76 10
77 40
78 10
79 2
80 1
81 40
82 2
83 2
84 2
85 40
86 10
87 2
88 40
89 20
90 10
91 2
92 2
93 20
94 2
95 2
96 2
97 40
98 2
99 2
100 2
101 1
102 40
103 10
104 2
105 1
106 40
107 20
108 10
109 2
110 40
111 40
112 2
113 1
114 40
115 40
116 10
117 2
118 2
119 1
120 40
121 40
122 2
123 2
124 2
125 2
126 1
127 40
128 20
129 10
130 2
131 2
132 1
133 40
134 2
135 2
136 2
137 40
138 20
139 10
140 2
141 20
142 2
143 2
144 2
145 2
146 1
147 20
148 10
149 2
150 2
151 1
152 40
153 2
154 2
155 2
156 2
157 40
158 20
159 10
160 2
161 20
162 10
163 2
164 2
165 20
166 10
167 2
168 2
169 1
170 40
171 20
172 2
173 2
174 2
175 1
176 40
177 20
178 2
179 2
180 40
181 10
182 2
183 2
184 40
185 10
186 40
187 20
188 10
189 2
190 2
191 2
192 2
193 1
194 40
195 20
196 40
197 2
198 2
199 2
200 1
201 40
202 10
203 1
204 40
205 40
206 2
207 2
208 1
209 40
210 10
211 2
212 1
213 40
214 20
215 2
216 40
217 10
218 2
219 2
220 1
221 40
222 20
223 2
224 2
225 2
226 2
227 20
228 10
229 2
230 2
231 2
232 1
233 40
234 20
235 40
236 20
237 2
238 2
239 2
240 1
241 40
242 40
243 10
244 2
245 1
246 40
247 40
248 20
249 40
250 20
251 40
252 40
253 2
254 2
255 2
256 1
257 40
258 20
259 10
260 2
261 2
262 2
263 40
264 40
265 2
266 2
267 1
268 40
269 20
270 1
271 40
272 10
273 1
274 20
275 2
276 2
277 2
278 2
279 1
280 40
281 20
282 10
283 2
284 40
285 40
286 10
287 2
288 1
289 20
290 10
291 2
292 2
293 2
294 2
295 40
296 40
297 2
298 2
299 2
300 1
301 40
302 10
303 2
304 1
305 40
306 20
307 2
308 2
309 1
310 40
311 2
312 40
313 40
314 40
315 20
316 2
317 2
318 1
319 40
320 20
321 10
322 2
323 2
324 40
325 20
326 1
327 20
328 10
329 2
330 1
331 40
332 40
333 40
334 2
335 2
336 2
337 40
338 2
339 2
340 2
341 1
342 40
343 40
344 2
345 2
346 20
347 10
348 2
349 2
350 2
351 2
352 20
353 10
354 2
355 2
356 1
357 40
358 20
359 2
360 2
361 40
362 10
363 2
364 2
365 2
366 40
367 20
368 2
369 2
370 2
371 2
372 1
373 20
374 10
375 2
376 1
377 40
378 10
379 2
380 2
381 40
382 40
383 10
384 2
385 2
386 2
387 2
388 1
389 40
390 40
391 2
392 40
393 20
394 10
395 1
396 40
397 10
398 2
399 2
400 2
401 2
402 1
403 40
404 40
405 1
406 40
407 20
408 2
409 2
410 1
411 40
412 10
413 2
414 2
415 2
416 1
417 40
418 20
419 40
420 40
421 10
422 2
423 2
424 2
425 2
426 1
427 40
428 10
429 1
430 20
431 10
432 2
433 1
434 40
435 20
436 2
437 2
438 2
439 2
440 40
441 2
442 2
443 2
444 1
445 40
446 20
447 10
448 2
449 40
450 40
451 10
452 2
453 2
454 2
455 40
456 20
457 40
458 2
459 2
460 40
461 40
462 10
463 2
464 2
465 2
466 1
467 40
468 40
469 20
470 20
471 10
472 2
473 2
474 1
475 40
476 40
477 10
478 2
479 2
480 2
481 1
482 20
483 10
484 2
485 1
486 40
487 40
488 10
489 2
490 2
491 2
492 2
493 1
494 20
495 10
496 2
497 2
498 2
499 40
500 2
501 2
502 40
503 40
504 10
505 1
506 20
507 10
508 2
509 2
510 1
511 40
512 40
513 10
514 2
515 2
516 2
517 2
518 20
519 2
520 2
521 2
522 2
523 40
524 2
525 2
526 1
527 40
528 10
529 2
530 2
531 2
532 40
533 10
534 1
535 20
536 10
537 2
538 1
539 40
540 40
541 2
542 2
543 1
544 40
545 2
546 1
547 40
548 20
549 2
550 20
551 10
552 2
553 1
554 40
555 20
556 2
557 2
558 2
559 20
560 2
561 2
562 2
563 2
564 1
565 40
566 20
567 10
568 2
569 40
570 10
571 2
572 2
573 2
574 1
575 20
576 10
577 2
578 2
579 2
580 2
581 40
582 10
583 2
584 2
585 40
586 20
587 2
588 2
589 2
590 2
591 1
592 40
593 20
594 2
595 2
596 2
597 1
598 20
599 10
600 2
601 2
602 20
603 10
604 2
605 2
606 2
607 2
608 1
609 20
610 10
611 1
612 40
613 20
614 2
615 2
616 2
617 1
618 20
619 2
620 2
621 2
622 2
623 1
624 40
625 2
626 1
627 40
628 40
629 40
630 10
631 2
632 2
633 2
634 2
635 40
636 2
637 2
638 40
639 40
640 2
641 2
642 2
643 40
644 2
645 2
646 1
647 40
648 40
649 20
650 20
651 2
652 2
653 1
654 40
655 20
656 2
657 2
658 2
659 2
660 20
661 10
662 2
663 2
664 40
665 10
666 1
667 40
668 40
669 10
670 40
671 20
672 10
673 2
674 2
675 40
676 20
677 2
678 2
679 2
680 2
DEPOT_SECTION
1
-1
EOF