SDVRP instances/custom_instances/p04_21_split0.sol
679 -3 2 4 1 73 72 365 368 370 369 367 -6 7 5 666 667 668 549 -22 21 23 24 19 20 541 542 539 540 538 193 194 -26 390 389 388 470 473 469 472 471 137 139 136 138 -27 28 29 30 452 451 449 448 453 450 422 424 421 423 425 -40 42 38 310 309 647 648 646 -43 37 39 41 428 426 427 313 317 316 315 314 575 577 576 35 578 -47 49 50 48 52 51 53 281 280 279 282 563 558 562 561 560 559 -55 57 56 54 675 679 678 677 674 676 270 433 436 437 435 434 -58 242 243 118 114 116 113 117 115 432 430 429 431 629 627 632 631 362 363 -59 61 411 410 567 565 564 566 372 375 374 373 -60 63 62 413 415 414 412 273 277 274 275 278 276 236 237 235 238 234 239 206 205 204 203 207 -68 555 556 554 553 557 103 102 101 104 147 148 150 146 149 371 366 -69 67 71 70 447 444 445 446 359 357 358 356 -86 85 84 506 505 509 507 508 455 454 544 545 543 -91 90 87 89 88 341 343 344 342 96 97 -92 93 95 94 383 385 380 384 382 386 387 381 458 457 456 609 610 608 -100 98 99 466 467 220 223 224 221 222 225 624 623 625 -108 106 105 107 74 75 403 402 404 -109 110 460 459 463 536 535 534 537 -130 131 129 126 127 128 178 175 177 176 332 334 333 335 550 551 552 -132 25 65 64 66 187 185 188 191 189 186 -135 133 134 658 653 655 657 656 654 531 640 639 638 641 637 -155 154 153 151 152 14 16 17 15 18 409 406 408 405 407 -168 166 167 31 32 33 156 159 158 157 441 439 -190 192 144 140 145 142 141 143 182 181 179 180 337 339 338 340 336 611 612 613 616 615 614 -202 201 200 645 644 643 642 324 323 325 352 354 355 351 353 -214 213 212 468 165 164 252 254 250 253 255 251 -216 246 247 245 361 360 364 621 620 622 618 619 617 -217 218 215 219 210 208 209 211 174 173 171 170 169 172 517 521 519 518 520 -240 241 244 231 227 228 229 226 230 584 585 587 586 588 589 590 272 271 438 -256 257 418 419 377 379 376 378 -259 258 261 260 516 514 513 510 511 515 512 669 673 671 670 672 -267 269 268 184 183 500 498 499 634 635 636 -283 286 285 284 287 44 45 46 522 524 523 525 -300 301 302 303 195 198 199 196 197 480 479 476 474 475 477 478 -307 308 306 305 304 265 262 264 263 266 628 630 633 -312 311 83 81 80 82 9 12 11 8 10 13 481 483 484 -327 326 329 328 248 249 299 298 295 296 297 294 111 112 464 462 465 461 -330 331 579 34 36 574 400 401 398 396 395 399 397 -350 346 345 348 349 347 593 594 595 591 596 592 293 288 291 292 290 289 581 583 582 580 -394 391 392 393 546 547 548 -417 416 232 233 76 78 79 77 482 -420 492 486 489 491 487 488 485 490 503 501 502 504 -440 442 443 527 526 529 528 530 599 597 598 600 123 122 120 121 125 119 124 532 533 -601 606 604 603 607 605 602 163 161 160 162 494 496 493 495 497 571 570 569 568 572 573 651 649 652 650 -660 661 662 659 626 320 319 318 322 321 664 665 663 0 





OBJ=
4010.924
BEST_KNOWN=
0.000